
c turning on binary mode checking

c parsing input formula with 16 variables and 448 clauses

c finished parsing, read 667 bytes from proof file

c detected empty clause; start verification via backward checking

c 104 of 448 clauses in core                            

c 73 of 85 lemmas in core using 617 resolution steps

c 0 RAT lemmas in core; 3 redundant literals in core lemmas

s VERIFIED

c verification time: 0.056 seconds
